POSCAR
1.00
  -10.47950000  -18.15102600    0.00000000
   20.95900000    0.00000000    0.00000000
    0.00000000    0.00000000   23.37150000
  Nb  Re   S  Se
  18  18  36  36
Direct
  0.88889000  0.94445000  0.50000000
  0.05554700  0.11110700  0.50000000
  0.88889000  0.11112000  0.50000000
  0.05554700  0.44443700  0.50000000
  0.88889000  0.44445000  0.50000000
  0.05554700  0.61110700  0.50000000
  0.88889000  0.61112000  0.50000000
  0.72222000  0.94445000  0.50000000
  0.55556000  0.77779000  0.50000000
  0.55556000  0.94445000  0.50000000
  0.55556000  0.11112000  0.50000000
  0.55556000  0.44445000  0.50000000
  0.38889000  0.27778000  0.50000000
  0.22222000  0.27778000  0.50000000
  0.22222000  0.44445000  0.50000000
  0.22222000  0.61111000  0.50000000
  0.22222000  0.77778000  0.50000000
  0.22222000  0.11111000  0.50000000
  0.05554700  0.94444400  0.50000000
  0.05554700  0.27777700  0.50000000
  0.88889000  0.27778000  0.50000000
  0.05554700  0.77777700  0.50000000
  0.88889000  0.77778000  0.50000000
  0.72222000  0.77778000  0.50000000
  0.72222000  0.11111000  0.50000000
  0.72222000  0.27778000  0.50000000
  0.72222000  0.44445000  0.50000000
  0.72222000  0.61111000  0.50000000
  0.55556000  0.61112000  0.50000000
  0.55556000  0.27779000  0.50000000
  0.38889000  0.44445000  0.50000000
  0.38889000  0.61112000  0.50000000
  0.38889000  0.77778000  0.50000000
  0.38889000  0.94445000  0.50000000
  0.38889000  0.11112000  0.50000000
  0.22222000  0.94445000  0.50000000
  1.00000000  1.00000000  0.42787000
  1.00000000  1.00000000  0.57213000
  1.00000000  0.16667000  0.42787000
  1.00000000  0.16667000  0.57213000
  1.00000000  0.33333000  0.42787000
  1.00000000  0.33333000  0.57213000
  1.00000000  0.83333000  0.57213000
  0.83333000  0.83333000  0.42787000
  0.83333000  1.00000000  0.42787000
  0.83333000  0.16666000  0.57213000
  0.83333000  0.33333000  0.57213000
  0.83333000  0.50000000  0.57213000
  0.83333000  0.66666000  0.42787000
  0.66667000  0.66667000  0.42787000
  0.66667000  0.83334000  0.57213000
  0.66667000  1.00000000  0.42787000
  0.66667000  1.00000000  0.57213000
  0.66667000  0.33334000  0.57213000
  0.66667000  0.50000000  0.42787000
  0.66667000  0.50000000  0.57213000
  0.50000000  0.50000000  0.42787000
  0.50000000  0.50000000  0.57213000
  0.50000000  0.66667000  0.42787000
  0.50000000  0.83333000  0.57213000
  0.50000000  1.00000000  0.57213000
  0.50000000  0.16667000  0.57213000
  0.33333000  0.50000000  0.42787000
  0.33333000  0.50000000  0.57213000
  0.33333000  1.00000000  0.42787000
  0.33333000  0.16666000  0.42787000
  0.33333000  0.16666000  0.57213000
  0.16667000  0.16667000  0.57213000
  0.16667000  0.50000000  0.42787000
  0.16667000  0.50000000  0.57213000
  0.16667000  0.66667000  0.42787000
  0.16667000  1.00000000  0.42787000
  1.00000000  0.50000000  0.42787000
  1.00000000  0.50000000  0.57213000
  1.00000000  0.66667000  0.42787000
  1.00000000  0.66667000  0.57213000
  1.00000000  0.83333000  0.42787000
  0.83333000  0.83333000  0.57213000
  0.83333000  1.00000000  0.57213000
  0.83333000  0.16666000  0.42787000
  0.83333000  0.33333000  0.42787000
  0.83333000  0.50000000  0.42787000
  0.83333000  0.66666000  0.57213000
  0.66667000  0.66667000  0.57213000
  0.66667000  0.83334000  0.42787000
  0.66667000  0.16667000  0.42787000
  0.66667000  0.16667000  0.57213000
  0.66667000  0.33334000  0.42787000
  0.50000000  0.66667000  0.57213000
  0.50000000  0.83333000  0.42787000
  0.50000000  1.00000000  0.42787000
  0.50000000  0.16667000  0.42787000
  0.50000000  0.33333000  0.42787000
  0.50000000  0.33333000  0.57213000
  0.33333000  0.33333000  0.42787000
  0.33333000  0.33333000  0.57213000
  0.33333000  0.66666000  0.42787000
  0.33333000  0.66666000  0.57213000
  0.33333000  0.83333000  0.42787000
  0.33333000  0.83333000  0.57213000
  0.33333000  1.00000000  0.57213000
  0.16667000  0.16667000  0.42787000
  0.16667000  0.33334000  0.42787000
  0.16667000  0.33334000  0.57213000
  0.16667000  0.66667000  0.57213000
  0.16667000  0.83334000  0.42787000
  0.16667000  0.83334000  0.57213000
  0.16667000  1.00000000  0.57213000
